Test: hole016_shuffled.cnf
Options: -no-inverting-opt -activity-nl-freq=1
WARNING: for repeatability, setting FPU to use double precision
============================[ Problem Statistics ]=============================
|                                                                             |
|  Number of symmetries:           31                                         |
|  Number of invertingSyms:         0                                         |
|  Number of variables:           272                                         |
|  Number of clauses:            2193                                         |
|  Parse time:                   0.00 s                                       |
|                                                                             |
============================[ Search Statistics ]==============================
| Conflicts |          ORIGINAL         |          LEARNT          | Progress |
|           |    Vars  Clauses Literals |    Limit  Clauses Lit/Cl |          |
===============================================================================
|       100 |     272     2193     4624 |      804      110    107 |  0.001 % |
|       250 |     272     2193     4624 |      884      306    104 |  0.001 % |
|       475 |     272     2193     4624 |      972      674    107 |  0.001 % |
|       812 |     272     2193     4624 |     1070      594     76 |  0.001 % |
|      1318 |     272     2193     4624 |     1177      741     83 |  0.001 % |
|      2077 |     272     2193     4624 |     1295      727     69 |  0.001 % |
|      3216 |     272     2193     4624 |     1424     1279     87 |  0.001 % |
|      4924 |     272     2193     4624 |     1566      875     90 |  0.001 % |
|      7486 |     272     2193     4624 |     1723     1477     99 |  0.001 % |
|     11330 |     272     2193     4624 |     1896     1182    106 |  0.001 % |
|     17096 |     272     2193     4624 |     2085     1603    104 |  0.001 % |
|     25745 |     272     2193     4624 |     2294     1155    101 |  0.001 % |
|     38719 |     272     2193     4624 |     2523     1984    101 |  0.001 % |
|     58180 |     272     2193     4624 |     2775     2632     94 |  0.001 % |
|     87372 |     272     2193     4624 |     3053     2856     82 |  0.001 % |
|    131161 |     272     2193     4624 |     3358     2976     98 |  0.001 % |
|    196845 |     272     2193     4624 |     3694     2891     84 |  0.001 % |
|    295371 |     272     2193     4624 |     4064     2643     98 |  0.001 % |
|    443160 |     272     2193     4624 |     4470     2413     91 |  0.001 % |
|    664843 |     272     2193     4624 |     4917     3919    103 |  0.001 % |
|    997368 |     272     2193     4624 |     5409     4905     99 |  0.001 % |
|   1496156 |     272     2193     4624 |     5950     4181    106 |  0.001 % |
|   2244338 |     272     2193     4624 |     6545     4857     85 |  0.001 % |
|   3366612 |     272     2193     4624 |     7200     5395    104 |  0.001 % |
|   5050023 |     272     2193     4624 |     7920     6287     76 |  0.001 % |
|   7575139 |     272     2193     4624 |     8712     7013     92 |  0.001 % |
|  11362814 |     272     2193     4624 |     9583     5029    108 |  0.001 % |
===============================================================================
restarts              : 20534
conflicts             : 13965647       (15535 /sec)
symconflicts          : 1846307        (2054 /sec)
decisions             : 24507327       (0.00 % random) (27262 /sec)
propagations          : 281501147      (313144 /sec)
sympropagations       : 9093557        (10116 /sec)
conflict literals     : 1462451860     (6.53 % deleted)
literals     : 1462451860     (6.53 % deleted)

HEURISTIC USAGES
random                : 0           
activity w/ lookahead : 0           
activity no lookahead : 24507327    
original sp           : 0           
sym count             : 0           

Memory used           : 37.00 MB
CPU time              : 898.952 s

UNSATISFIABLE
